p tdp 20 40
1 5
1 8
1 9
1 11
1 15
1 20
2 3
2 12
3 7
3 8
3 10
3 11
3 20
4 9
4 11
4 18
5 6
5 10
5 14
6 12
6 15
7 15
7 20
8 9
8 10
8 16
8 17
9 19
10 13
10 20
11 13
11 14
11 18
12 16
13 14
13 19
14 19
15 19
16 17
17 20
